c generated by sgen3tocnf
c nLits = 636
c actual nVars = 101
c Command: sgen3tocnf 025 0 4 25 101 4 2 0 /dev/null
p cnf 101 212
-49 -65 -73 0
-49 -65 -85 0
-49 -73 -85 0
-65 -73 -85 0
-21 -33 -61 0
-21 -33 -77 0
-21 -61 -77 0
-33 -61 -77 0
-1 -25 -34 0
-1 -25 -74 0
-1 -34 -74 0
-25 -34 -74 0
-9 -45 -86 0
-9 -45 -89 0
-9 -86 -89 0
-45 -86 -89 0
-2 -37 -50 0
-2 -37 -62 0
-2 -50 -62 0
-37 -50 -62 0
-13 -41 -90 0
-13 -41 -97 0
-13 -90 -97 0
-41 -90 -97 0
-26 -69 -87 0
-26 -69 -98 0
-26 -87 -98 0
-69 -87 -98 0
-17 -27 -53 0
-17 -27 -91 0
-17 -53 -91 0
-27 -53 -91 0
-3 -5 -18 0
-3 -5 -46 0
-3 -18 -46 0
-5 -18 -46 0
-57 -78 -81 0
-57 -78 -88 0
-57 -81 -88 0
-78 -81 -88 0
-6 -10 -38 0
-6 -10 -93 0
-6 -38 -93 0
-10 -38 -93 0
-19 -35 -39 0
-19 -35 -42 0
-19 -39 -42 0
-35 -39 -42 0
-7 -14 -51 0
-7 -14 -79 0
-7 -51 -79 0
-14 -51 -79 0
-8 -43 -58 0
-8 -43 -66 0
-8 -58 -66 0
-43 -58 -66 0
-15 -22 -54 0
-15 -22 -67 0
-15 -54 -67 0
-22 -54 -67 0
-23 -75 -92 0
-23 -75 -99 0
-23 -92 -99 0
-75 -92 -99 0
-52 -55 -59 0
-52 -55 -94 0
-52 -59 -94 0
-55 -59 -94 0
-28 -29 -40 0
-28 -29 -82 0
-28 -40 -82 0
-29 -40 -82 0
-30 -56 -63 0
-30 -56 -76 0
-30 -63 -76 0
-56 -63 -76 0
-11 -31 -68 0
-11 -31 -80 0
-11 -68 -80 0
-31 -68 -80 0
-20 -24 -70 0
-20 -24 -95 0
-20 -70 -95 0
-24 -70 -95 0
-32 -44 -47 0
-32 -44 -71 0
-32 -47 -71 0
-44 -47 -71 0
-16 -36 -83 0
-16 -36 -96 0
-16 -83 -96 0
-36 -83 -96 0
-48 -64 -84 0
-48 -64 -100 0
-48 -84 -100 0
-64 -84 -100 0
-4 -12 -60 0
-4 -12 -72 0
-4 -12 -101 0
-4 -60 -72 0
-4 -60 -101 0
-4 -72 -101 0
-12 -60 -72 0
-12 -60 -101 0
-12 -72 -101 0
-60 -72 -101 0
1 2 3 0
1 2 4 0
1 3 4 0
2 3 4 0
5 6 7 0
5 6 8 0
5 7 8 0
6 7 8 0
9 10 11 0
9 10 12 0
9 11 12 0
10 11 12 0
13 14 15 0
13 14 16 0
13 14 101 0
13 15 16 0
13 15 101 0
13 16 101 0
14 15 16 0
14 15 101 0
14 16 101 0
15 16 101 0
17 18 19 0
17 18 20 0
17 19 20 0
18 19 20 0
21 22 23 0
21 22 24 0
21 23 24 0
22 23 24 0
25 26 27 0
25 26 28 0
25 27 28 0
26 27 28 0
29 30 31 0
29 30 32 0
29 31 32 0
30 31 32 0
33 34 35 0
33 34 36 0
33 35 36 0
34 35 36 0
37 38 39 0
37 38 40 0
37 39 40 0
38 39 40 0
41 42 43 0
41 42 44 0
41 43 44 0
42 43 44 0
45 46 47 0
45 46 48 0
45 47 48 0
46 47 48 0
49 50 51 0
49 50 52 0
49 51 52 0
50 51 52 0
53 54 55 0
53 54 56 0
53 55 56 0
54 55 56 0
57 58 59 0
57 58 60 0
57 59 60 0
58 59 60 0
61 62 63 0
61 62 64 0
61 63 64 0
62 63 64 0
65 66 67 0
65 66 68 0
65 67 68 0
66 67 68 0
69 70 71 0
69 70 72 0
69 71 72 0
70 71 72 0
73 74 75 0
73 74 76 0
73 75 76 0
74 75 76 0
77 78 79 0
77 78 80 0
77 79 80 0
78 79 80 0
81 82 83 0
81 82 84 0
81 83 84 0
82 83 84 0
85 86 87 0
85 86 88 0
85 87 88 0
86 87 88 0
89 90 91 0
89 90 92 0
89 91 92 0
90 91 92 0
93 94 95 0
93 94 96 0
93 95 96 0
94 95 96 0
97 98 99 0
97 98 100 0
97 99 100 0
98 99 100 0
